CUST NO.(ORIGINAL),CUST NO.(NEW),FROM TIME,TO TIME,SPOT ID(CUST NO.),PARKING TIME_ARRIVE,PARKING TIME_OPEN
156,10001,2000/1/1 12:00:00,2000/1/1 15:00:00,158,0,0
156,10002,2000/1/1 15:00:00,2000/1/1 17:00:00,159,0,0
157,20001,2000/1/1 1:00:00,2000/1/1 12:00:00,160,0,0